
Gurobi 10.0.3 (win64, gurobi_cl) logging started Wed Nov 20 15:11:14 2024

Set parameter WLSAccessID
Set parameter WLSSecret
Set parameter LicenseID to value 2412665
Set parameter LogFile to value "gurobi.log"
Academic license 2412665 - for non-commercial use only - registered to le___@estudiantat.upc.edu
Using license file C:\Users\raiya\gurobi.lic
